NAME: random89
TYPE: TSP
DIMENSION: 89
EDGE_WEIGHT_TYPE: EXPLICIT
EDGE_WEIGHT_FORMAT: FULL_MATRIX
EDGE_WEIGHT_SECTION
0 29 25 625 625 625 625 625 20 36 21 625 31 32 625 16 625 38 625 625 24 625 10 38 43 28 625 36 625 625 25 625 625 625 30 625 625 28 625 30 45 625 625 625 625 625 625 625 625 18 625 625 14 18 625 625 27 36 625 625 625 625 625 5 625 625 625 52 625 625 625 625 43 625 625 625 27 5 9 625 625 625 625 625 15 24 625 625 625
29 0 32 625 625 625 625 35 625 625 33 625 625 625 625 15 8 9 625 625 32 625 625 625 625 4 625 625 26 625 39 625 625 625 15 625 625 33 33 625 625 625 625 7 625 625 625 625 22 625 625 625 17 625 24 625 22 625 625 625 625 625 625 32 625 625 625 72 625 625 625 625 625 625 625 625 625 24 24 625 19 25 625 625 38 625 625 625 625
25 32 0 625 625 48 625 625 16 29 5 625 30 625 64 29 40 38 625 625 47 41 30 625 625 28 625 625 56 40 9 625 625 625 42 625 625 625 63 625 625 625 625 38 625 625 625 79 52 29 625 625 29 625 625 625 44 625 625 625 625 625 625 30 625 625 625 41 625 47 625 625 625 43 625 625 625 24 16 625 49 55 625 625 18 625 625 625 625
625 625 625 0 8 625 24 9 625 625 625 625 625 20 625 33 625 625 11 625 18 625 625 29 625 625 11 40 24 625 625 625 625 625 25 625 37 13 23 625 625 625 625 625 625 625 625 625 625 625 625 625 33 30 19 625 18 625 625 6 625 35 46 39 625 36 18 625 625 625 625 625 625 625 20 625 20 625 625 42 26 44 15 41 625 32 20 10 625
625 625 625 8 0 625 30 1 625 625 625 625 625 27 625 32 625 39 19 625 22 625 625 37 625 625 19 625 16 625 625 625 625 625 21 625 625 17 14 625 625 625 625 625 625 49 625 625 34 625 625 625 33 625 12 625 17 625 625 10 625 44 625 625 625 44 21 625 625 625 625 625 625 625 23 57 26 625 625 625 20 37 22 47 625 625 26 18 625
625 625 48 625 625 0 625 625 33 24 625 625 19 625 17 625 625 625 625 625 625 18 34 625 26 625 625 625 625 26 40 625 625 625 625 40 625 625 625 13 41 625 625 625 625 625 41 34 625 24 625 7 625 625 625 625 625 37 9 625 6 625 625 625 63 625 625 31 32 15 625 625 625 13 625 625 625 625 625 625 625 625 625 625 33 625 625 625 625
625 625 625 24 30 625 0 31 625 625 625 625 625 29 625 625 625 625 21 30 625 625 625 31 625 625 24 625 46 625 625 625 625 37 625 625 31 625 42 625 625 31 625 625 31 22 625 625 625 625 25 625 625 625 42 74 625 625 625 20 625 24 30 625 625 20 13 625 625 625 625 29 625 625 11 27 625 625 625 31 625 66 10 18 625 625 4 23 26
625 35 625 9 1 625 31 0 625 625 625 625 625 28 625 31 31 38 20 625 22 625 625 37 625 39 20 625 15 625 625 625 625 625 20 625 625 17 14 625 625 625 625 625 625 50 625 625 33 625 625 625 32 35 11 625 16 625 625 11 625 44 625 41 625 625 22 625 625 625 625 625 625 625 24 58 26 39 46 625 19 36 23 48 625 38 27 19 625
20 625 16 625 625 33 625 625 0 17 11 625 15 625 48 33 625 49 625 625 625 28 20 625 46 38 625 50 625 29 8 625 625 625 625 57 625 625 625 21 53 625 625 625 625 625 625 625 625 15 625 625 31 37 625 625 625 46 35 625 31 625 625 24 625 625 625 32 54 33 625 625 54 29 625 625 625 23 18 625 625 625 625 625 6 41 625 625 625
36 625 29 625 625 24 625 625 17 0 25 625 8 625 41 625 625 65 625 625 625 12 32 625 46 54 625 625 625 13 19 625 625 625 625 625 625 625 625 19 625 625 625 625 625 625 625 58 625 22 625 625 625 625 625 625 625 51 30 625 26 625 625 625 625 625 625 16 625 18 625 625 625 15 625 625 625 625 34 625 625 625 625 625 21 625 625 625 625
21 33 5 625 625 625 625 625 11 25 0 625 26 625 625 28 41 40 625 625 44 37 26 625 55 30 625 625 625 37 6 625 625 625 42 625 625 625 625 32 625 625 625 40 625 625 625 625 54 24 625 625 27 39 625 625 43 53 625 625 625 625 625 26 625 625 625 39 625 43 625 625 625 39 625 625 625 22 14 625 625 58 625 625 13 45 625 625 625
625 625 625 625 625 625 625 625 625 625 625 0 625 625 625 625 625 625 46 30 625 625 625 32 625 625 625 31 625 625 625 17 8 15 625 32 21 625 625 625 30 14 19 625 27 26 625 625 625 625 22 625 625 625 625 31 625 36 625 625 625 21 16 625 35 24 625 625 625 625 4 18 28 625 625 36 625 625 625 15 625 625 45 625 625 43 625 625 21
31 625 30 625 625 19 625 625 15 8 26 625 0 625 35 625 625 625 625 625 625 14 26 625 38 625 625 50 625 18 21 625 625 625 625 52 625 625 625 11 50 625 625 625 625 625 625 52 625 15 625 24 625 43 625 625 625 43 23 625 19 625 625 32 625 625 625 23 46 18 625 625 52 14 625 625 625 625 32 625 625 625 625 625 18 45 625 625 625
32 625 625 20 27 625 29 28 625 625 625 625 625 0 625 625 625 625 11 625 12 625 32 11 45 625 9 20 625 625 625 625 625 625 625 625 21 13 625 625 34 625 27 625 625 625 625 625 625 42 625 625 31 15 625 625 24 29 625 24 625 24 37 28 625 28 33 625 625 625 625 625 30 625 625 625 6 625 625 28 625 625 21 625 45 13 28 10 625
625 625 64 625 625 17 625 625 48 41 625 625 35 625 0 625 625 625 625 625 625 33 44 625 20 625 625 46 625 41 55 49 625 625 625 33 625 625 625 27 36 625 625 625 625 625 26 19 625 37 625 11 625 625 625 52 625 36 14 625 17 625 625 625 49 625 625 46 22 29 625 625 41 29 625 625 625 625 625 625 625 625 625 625 48 51 625 625 625
16 15 29 33 32 625 625 31 33 625 28 625 625 625 625 0 20 24 625 625 20 625 25 625 625 16 32 625 29 625 34 625 625 625 15 625 625 22 35 625 625 625 625 20 625 625 625 625 33 34 625 625 2 24 24 625 15 625 625 625 625 625 625 18 625 625 625 65 625 625 625 625 625 625 625 625 26 11 15 625 23 37 625 625 28 625 625 33 625
625 8 40 625 625 625 625 31 625 625 41 625 625 625 625 20 0 6 625 625 34 625 625 625 625 12 625 625 20 625 47 625 625 625 13 625 625 33 26 625 625 625 625 2 625 625 625 625 14 625 625 625 22 625 20 625 22 625 625 625 625 625 625 625 625 625 625 80 625 625 625 625 625 625 625 625 625 625 32 625 13 17 625 625 625 625 625 625 625
38 9 38 625 39 625 625 38 49 65 40 625 625 625 625 24 6 0 625 625 625 625 625 625 625 10 625 625 26 77 46 625 625 625 19 625 625 625 32 625 625 625 625 5 625 625 625 625 15 625 625 625 26 625 26 625 28 625 625 625 625 625 625 625 625 625 60 79 625 82 625 625 625 625 625 625 625 33 33 625 19 18 625 85 46 625 625 625 625
625 625 625 11 19 625 21 20 625 625 625 46 625 11 625 625 625 625 0 625 15 625 41 18 625 625 3 30 625 625 625 625 625 625 625 625 26 13 33 625 625 39 34 625 625 34 625 625 625 625 36 625 625 24 28 625 23 39 625 14 625 25 37 625 625 27 22 625 625 625 625 38 39 625 23 625 13 625 625 31 625 625 11 39 625 24 19 2 36
625 625 625 625 625 625 30 625 625 625 625 30 625 625 625 625 625 625 625 0 625 625 625 625 625 625 625 625 625 625 625 46 37 15 625 625 625 625 71 625 625 16 625 625 3 11 625 625 625 625 11 625 625 625 625 60 625 625 625 625 625 26 16 625 64 20 41 625 625 625 625 13 625 625 39 6 625 625 625 625 625 625 37 20 625 625 33 625 12
24 32 47 18 22 625 625 22 625 625 44 625 625 12 625 20 34 625 15 625 0 625 28 23 625 35 12 29 30 625 625 625 625 625 22 625 625 4 33 625 625 625 625 625 625 625 625 625 625 38 625 625 20 13 23 625 12 36 625 23 625 625 625 21 625 625 625 625 625 625 625 625 625 625 625 625 7 23 31 625 28 625 625 625 39 17 625 13 625
625 625 41 625 625 18 625 625 28 12 37 625 14 625 33 625 625 625 625 625 625 0 39 625 43 625 625 625 625 8 32 625 625 625 625 625 625 625 625 20 625 625 625 625 625 625 58 52 625 28 625 25 625 625 625 625 625 52 26 625 22 625 625 625 81 625 625 13 49 6 625 625 625 5 625 625 625 625 625 625 625 625 625 625 32 625 625 625 625
10 625 30 625 625 34 625 625 20 32 26 625 26 32 44 25 625 625 41 625 28 39 0 35 34 38 38 30 625 625 27 55 625 625 625 41 44 32 625 22 36 625 42 625 625 625 625 625 625 11 625 625 23 17 625 625 34 28 31 625 29 51 625 7 625 625 625 625 42 625 625 625 36 38 625 625 28 14 18 625 625 625 625 625 14 21 625 625 625
38 625 625 29 37 625 31 37 625 625 625 32 625 11 625 625 625 625 18 625 23 625 35 0 38 625 18 13 625 625 625 34 625 625 625 625 11 24 625 625 25 30 16 625 625 32 625 625 625 43 31 625 625 19 625 625 625 22 625 32 625 17 29 33 625 23 38 625 625 625 33 31 20 625 625 625 16 625 625 19 625 625 25 625 49 14 31 19 31
43 625 625 625 625 26 625 625 46 46 55 625 38 45 20 625 625 625 625 625 625 43 34 38 0 625 625 26 625 51 54 32 41 625 625 15 40 625 625 27 16 625 31 625 625 625 23 21 625 31 625 20 625 37 625 41 625 16 17 625 21 625 625 39 40 625 625 56 8 41 43 625 21 39 625 625 45 625 51 625 625 625 625 625 43 33 625 625 625
28 4 28 625 625 625 625 39 38 54 30 625 625 625 625 16 12 10 625 625 35 625 38 625 625 0 625 625 30 67 36 625 625 625 19 625 625 36 37 625 625 625 625 10 625 625 625 625 25 45 625 625 18 625 28 625 26 625 625 625 625 625 625 32 625 625 625 69 625 72 625 625 625 625 625 625 625 24 22 625 23 28 625 625 36 625 625 625 625
625 625 625 11 19 625 24 20 625 625 625 625 625 9 625 32 625 625 3 625 12 625 38 18 625 625 0 29 625 625 625 625 625 625 30 625 26 10 33 625 625 625 625 625 625 625 625 625 625 625 625 625 32 21 27 625 20 38 625 15 625 27 39 33 625 29 25 625 625 625 625 625 625 625 625 625 10 625 625 32 625 625 14 625 625 21 22 1 625
36 625 625 40 625 625 625 625 50 625 625 31 50 20 46 625 625 625 30 625 29 625 30 13 26 625 29 0 625 625 625 27 31 41 625 21 16 32 625 40 14 35 12 625 625 625 625 625 625 36 625 625 625 20 625 46 625 10 39 44 625 25 35 31 47 32 625 625 29 625 31 625 9 625 625 625 23 625 625 23 625 625 37 625 44 14 625 30 625
625 26 56 24 16 625 46 15 625 625 625 625 625 625 625 29 20 26 625 625 30 625 625 625 625 30 625 625 0 625 625 625 625 625 15 625 625 27 7 625 625 625 625 22 625 66 625 625 18 625 625 625 31 625 7 625 19 625 625 26 625 625 625 625 625 625 36 625 625 625 625 625 625 625 38 73 625 625 625 625 7 20 38 62 625 625 42 625 625
625 625 40 625 625 26 625 625 29 13 37 625 18 625 41 625 625 77 625 625 625 8 625 625 51 67 625 625 625 0 31 625 625 625 625 625 625 625 625 27 625 625 625 625 625 625 66 59 625 34 625 33 625 625 625 625 625 625 34 625 30 625 625 625 88 625 625 5 57 12 625 625 625 12 625 625 625 625 47 625 625 625 625 625 34 625 625 625 625
25 39 9 625 625 40 625 625 8 19 6 625 21 625 55 34 47 46 625 625 625 32 27 625 54 36 625 625 625 31 0 625 625 625 625 625 625 625 625 29 625 625 625 46 625 625 625 71 60 23 625 625 32 625 625 625 625 53 625 625 625 625 625 625 625 625 625 33 625 38 625 625 625 34 625 625 625 26 19 625 625 63 625 625 12 625 625 625 625
625 625 625 625 625 625 625 625 625 625 625 17 625 625 49 625 625 625 625 46 625 625 55 34 32 625 625 27 625 625 625 0 10 32 625 17 26 625 625 57 19 30 17 625 44 41 31 37 625 58 37 625 625 625 625 20 625 27 49 625 625 31 31 625 23 625 625 625 27 73 12 34 19 625 625 52 625 625 625 24 625 625 625 625 625 41 625 625 36
625 625 625 625 625 625 625 625 625 625 625 8 625 625 625 625 625 625 625 37 625 625 625 625 41 625 625 31 625 625 625 10 0 23 625 26 25 625 625 625 26 22 19 625 35 34 40 46 625 625 29 625 625 625 625 24 625 33 625 625 625 27 23 625 28 625 625 625 37 625 3 26 25 625 625 43 625 625 625 20 625 625 625 625 625 625 625 625 29
625 625 625 625 625 625 37 625 625 625 625 15 625 625 625 625 625 625 625 15 625 625 625 625 625 625 625 41 625 625 625 32 23 0 625 46 27 625 625 625 43 7 30 625 12 15 62 68 625 625 11 625 625 625 625 45 625 625 625 625 625 21 9 625 49 19 625 625 625 625 20 8 40 625 625 21 625 625 625 19 625 625 625 33 625 625 625 625 11
30 15 42 25 21 625 625 20 625 625 42 625 625 625 625 15 13 19 625 625 22 625 625 625 625 19 30 625 15 625 625 625 625 625 0 625 625 20 21 625 625 625 625 14 625 625 625 625 22 625 625 625 17 32 10 625 10 625 625 625 625 625 625 31 625 625 42 625 625 625 625 625 625 625 625 625 29 26 30 625 9 25 625 67 43 625 625 30 625
625 625 625 625 625 40 625 625 57 625 625 32 52 625 33 625 625 625 625 625 625 625 41 625 15 625 625 21 625 625 625 17 26 46 625 0 30 625 625 41 7 625 20 625 57 625 22 25 625 42 625 34 625 625 625 30 625 14 32 625 36 625 625 625 29 625 625 625 12 56 28 625 12 54 625 625 625 625 625 33 625 625 625 625 53 33 625 625 625
625 625 625 37 625 625 31 625 625 625 625 21 625 21 625 625 625 625 26 625 625 625 44 11 40 625 26 16 625 625 625 26 25 27 625 30 0 625 625 625 24 20 10 625 625 24 625 625 625 51 23 625 625 30 625 46 625 25 625 38 625 9 19 625 49 16 41 625 625 625 23 22 19 625 625 625 26 625 625 8 625 625 28 625 625 24 32 27 22
28 33 625 13 17 625 625 17 625 625 625 625 625 13 625 22 33 625 13 625 4 625 32 24 625 36 10 32 27 625 625 625 625 625 20 625 625 0 29 625 625 625 625 625 625 625 625 625 625 625 625 625 22 17 20 625 11 40 625 19 625 36 625 26 625 625 31 625 625 625 625 625 625 625 625 625 9 26 34 625 26 45 24 51 625 21 625 11 625
625 33 63 23 14 625 42 14 625 625 625 625 625 625 625 35 26 32 33 71 33 625 625 625 625 37 33 625 7 625 625 625 625 625 21 625 625 29 0 625 625 625 625 28 73 63 625 625 23 625 66 625 37 625 11 625 23 625 625 23 625 58 625 625 625 58 31 625 625 625 625 625 625 625 34 69 38 625 625 625 14 25 36 57 625 625 38 32 625
30 625 625 625 625 13 625 625 21 19 32 625 11 625 27 625 625 625 625 625 625 20 22 625 27 625 625 40 625 27 29 57 625 625 625 41 625 625 625 0 39 625 625 625 625 625 47 43 625 11 625 16 625 37 625 625 625 33 14 625 10 625 625 29 67 625 625 32 35 22 625 625 41 17 625 625 625 625 33 625 625 625 625 625 21 37 625 625 625
45 625 625 625 625 41 625 625 53 625 625 30 50 34 36 625 625 625 625 625 625 625 36 25 16 625 625 14 625 625 625 19 26 43 625 7 24 625 625 39 0 625 15 625 53 625 29 32 625 39 625 36 625 32 625 35 625 8 33 625 36 625 625 40 35 625 625 625 17 57 27 625 5 54 625 625 37 625 625 28 625 625 625 625 49 26 625 625 625
625 625 625 625 625 625 31 625 625 625 625 14 625 625 625 625 625 625 39 16 625 625 625 30 625 625 625 35 625 625 625 30 22 7 625 625 20 625 625 625 625 0 25 625 14 12 625 625 625 625 7 625 625 625 625 46 625 625 625 625 625 14 2 625 49 12 625 625 625 625 19 4 35 625 625 22 625 625 625 12 625 625 35 625 625 625 625 625 7
625 625 625 625 625 625 625 625 625 625 625 19 625 27 625 625 625 625 34 625 625 625 42 16 31 625 625 12 625 625 625 17 19 30 625 20 10 625 625 625 15 25 0 625 39 625 41 45 625 48 625 625 625 32 625 38 625 18 625 625 625 18 25 625 40 25 625 625 31 625 19 28 10 625 625 625 32 625 625 13 625 625 38 625 625 25 625 625 29
625 7 38 625 625 625 625 625 625 625 40 625 625 625 625 20 2 5 625 625 625 625 625 625 625 10 625 625 22 625 46 625 625 625 14 625 625 625 28 625 625 625 625 0 625 625 625 625 15 625 625 625 22 625 22 625 24 625 625 625 625 625 625 625 625 625 625 79 625 625 625 625 625 625 625 625 625 625 31 625 15 18 625 625 625 625 625 625 625
625 625 625 625 625 625 31 625 625 625 625 27 625 625 625 625 625 625 625 3 625 625 625 625 625 625 625 625 625 625 625 44 35 12 625 57 625 625 73 625 53 14 39 625 0 11 74 80 625 625 11 625 625 625 625 57 625 625 625 625 625 25 14 625 61 19 43 625 625 625 32 11 49 625 41 9 625 625 625 26 625 625 38 22 625 625 35 625 11
625 625 625 625 49 625 22 50 625 625 625 26 625 625 625 625 625 625 34 11 625 625 625 32 625 625 625 625 66 625 625 41 34 15 625 625 24 625 63 625 625 12 625 625 11 0 625 625 625 625 4 625 625 625 61 58 625 625 625 40 625 16 10 625 61 9 34 625 625 625 625 9 625 625 32 13 625 625 625 19 625 86 27 19 625 625 25 625 5
625 625 625 625 625 41 625 625 625 625 625 625 625 625 26 625 625 625 625 625 625 58 625 625 23 625 625 625 625 66 625 31 40 62 625 22 625 625 625 47 29 625 41 625 74 625 0 8 625 54 625 34 625 625 625 27 625 35 34 625 625 625 625 625 24 625 625 71 15 54 43 625 34 54 625 625 625 625 625 625 625 625 625 625 625 625 625 625 625
625 625 79 625 625 34 625 625 625 58 625 625 52 625 19 625 625 625 625 625 625 52 625 625 21 625 625 625 625 59 71 37 46 68 625 25 625 625 625 43 32 625 45 625 80 625 8 0 625 50 625 28 625 625 625 34 625 36 29 625 33 625 625 625 31 625 625 64 15 47 49 625 37 47 625 625 625 625 625 625 625 625 625 625 625 625 625 625 625
625 22 52 625 34 625 625 33 625 625 54 625 625 625 625 33 14 15 625 625 625 625 625 625 625 25 625 625 18 625 60 625 625 625 22 625 625 625 23 625 625 625 625 15 625 625 625 625 0 625 625 625 625 625 23 625 31 625 625 625 625 625 625 625 625 625 54 93 625 625 625 625 625 625 625 625 625 625 45 625 16 4 625 80 625 625 625 625 625
18 625 29 625 625 24 625 625 15 22 24 625 15 42 37 34 625 625 625 625 38 28 11 43 31 45 625 36 625 34 23 58 625 625 625 42 51 625 625 11 39 625 48 625 625 625 54 50 625 0 625 26 32 27 625 625 625 31 23 625 21 625 625 18 71 625 625 38 40 32 625 625 40 27 625 625 38 23 23 625 625 625 625 625 12 30 625 625 625
625 625 625 625 625 625 25 625 625 625 625 22 625 625 625 625 625 625 36 11 625 625 625 31 625 625 625 625 625 625 625 37 29 11 625 625 23 625 66 625 625 7 625 625 11 4 625 625 625 625 0 625 625 625 625 53 625 625 625 43 625 14 6 625 57 9 38 625 625 625 625 4 625 625 36 16 625 625 625 16 625 625 30 23 625 625 29 625 1
625 625 625 625 625 7 625 625 625 625 625 625 24 625 11 625 625 625 625 625 625 25 625 625 20 625 625 625 625 33 625 625 625 625 625 34 625 625 625 16 36 625 625 625 625 625 34 28 625 26 625 0 625 625 625 625 625 33 4 625 6 625 625 625 56 625 625 38 25 22 625 625 625 20 625 625 625 625 625 625 625 625 625 625 625 625 625 625 625
14 17 29 33 33 625 625 32 31 625 27 625 625 31 625 2 22 26 625 625 20 625 23 625 625 18 32 625 31 625 32 625 625 625 17 625 625 22 37 625 625 625 625 22 625 625 625 625 625 32 625 625 0 22 25 625 16 45 625 625 625 625 625 16 625 625 625 64 625 625 625 625 625 625 625 625 25 9 14 625 25 625 625 625 26 29 625 33 625
18 625 625 30 625 625 625 35 37 625 39 625 43 15 625 24 625 625 24 625 13 625 17 19 37 625 21 20 625 625 625 625 625 625 32 625 30 17 625 37 32 625 32 625 625 625 625 625 625 27 625 625 22 0 35 625 24 24 625 625 625 36 625 13 625 625 625 625 625 625 625 625 29 625 625 625 11 20 27 625 625 625 625 625 31 7 625 22 625
625 24 625 19 12 625 42 11 625 625 625 625 625 625 625 24 20 26 28 625 23 625 625 625 625 28 27 625 7 625 625 625 625 625 10 625 625 20 11 625 625 625 625 22 625 61 625 625 23 625 625 625 25 35 0 625 12 625 625 22 625 625 625 38 625 625 34 625 625 625 625 625 625 625 36 69 29 34 39 625 8 26 34 59 625 625 38 26 625
625 625 625 625 625 625 74 625 625 625 625 31 625 625 52 625 625 625 625 60 625 625 625 625 41 625 625 46 625 625 625 20 24 45 625 30 46 625 625 625 35 46 38 625 57 58 27 34 625 625 53 625 625 625 625 0 625 43 625 625 625 625 47 625 4 55 625 625 34 80 27 49 37 625 625 66 625 625 625 44 625 625 625 77 625 625 625 625 53
27 22 44 18 17 625 625 16 625 625 43 625 625 24 625 15 22 28 23 625 12 625 34 625 625 26 20 625 19 625 625 625 625 625 10 625 625 11 23 625 625 625 625 24 625 625 625 625 31 625 625 625 16 24 12 625 0 625 625 24 625 625 625 26 625 625 36 625 625 625 625 625 625 625 625 625 19 23 29 625 16 35 625 59 41 29 625 21 625
36 625 625 625 625 37 625 625 46 51 53 36 43 29 36 625 625 625 39 625 36 52 28 22 16 625 38 10 625 625 53 27 33 625 625 14 25 40 625 33 8 625 18 625 625 625 35 36 625 31 625 33 45 24 625 43 625 0 29 625 32 34 625 31 44 625 625 625 20 52 34 625 9 49 625 625 31 40 45 31 625 625 625 625 41 19 625 625 625
625 625 625 625 625 9 625 625 35 30 625 625 23 625 14 625 625 625 625 625 625 26 31 625 17 625 625 39 625 34 625 49 625 625 625 32 625 625 625 14 33 625 625 625 625 625 34 29 625 23 625 4 625 625 625 625 625 29 0 625 5 625 625 625 55 625 625 39 23 24 625 625 36 22 625 625 625 625 625 625 625 625 625 625 34 40 625 625 625
625 625 625 6 10 625 20 11 625 625 625 625 625 24 625 625 625 625 14 625 23 625 625 32 625 625 15 44 26 625 625 625 625 625 625 625 38 19 23 625 625 625 625 625 625 40 625 625 625 625 43 625 625 625 22 625 24 625 625 0 625 35 45 625 625 35 13 625 625 625 625 625 625 625 14 47 25 625 625 42 625 47 13 37 625 37 16 14 43
625 625 625 625 625 6 625 625 31 26 625 625 19 625 17 625 625 625 625 625 625 22 29 625 21 625 625 625 625 30 625 625 625 625 625 36 625 625 625 10 36 625 625 625 625 625 625 33 625 21 625 6 625 625 625 625 625 32 5 625 0 625 625 625 625 625 625 35 28 21 625 625 625 18 625 625 625 625 625 625 625 625 625 625 31 625 625 625 625
625 625 625 35 44 625 24 44 625 625 625 21 625 24 625 625 625 625 25 26 625 625 51 17 625 625 27 25 625 625 625 31 27 21 625 625 9 36 58 625 625 14 18 625 25 16 625 625 625 625 14 625 625 36 625 625 625 34 625 35 625 0 13 625 625 7 35 625 625 625 24 15 28 625 34 29 30 625 625 7 625 625 24 32 625 31 26 27 14
625 625 625 46 625 625 30 625 625 625 625 16 625 37 625 625 625 625 37 16 625 625 625 29 625 625 39 35 625 625 625 31 23 9 625 625 19 625 625 625 625 2 25 625 14 10 625 625 625 625 6 625 625 625 625 47 625 625 625 45 625 13 0 625 625 11 42 625 625 625 20 3 35 625 40 21 625 625 625 12 625 625 33 30 625 43 33 39 5
5 32 30 39 625 625 625 41 24 625 26 625 32 28 625 18 625 625 625 625 21 625 7 33 39 32 33 31 625 625 625 625 625 625 31 625 625 26 625 29 40 625 625 625 625 625 625 625 625 18 625 625 16 13 38 625 26 31 625 625 625 625 625 0 625 625 625 625 625 625 625 625 38 625 625 625 23 9 15 625 625 625 625 625 18 19 625 34 625
625 625 625 625 625 63 625 625 625 625 625 35 625 625 49 625 625 625 625 64 625 81 625 625 40 625 625 47 625 88 625 23 28 49 625 29 49 625 625 67 35 49 40 625 61 61 24 31 625 71 57 56 625 625 625 4 625 44 55 625 625 625 625 625 0 625 625 93 32 77 31 53 38 76 625 70 625 625 625 46 625 625 625 625 625 625 625 625 56
625 625 625 36 44 625 20 625 625 625 625 24 625 28 625 625 625 625 27 20 625 625 625 23 625 625 29 32 625 625 625 625 625 19 625 625 16 625 58 625 625 12 25 625 19 9 625 625 625 625 9 625 625 625 625 55 625 625 625 35 625 7 11 625 625 0 32 625 625 625 625 11 625 625 30 22 625 625 625 12 625 625 22 25 625 37 23 29 9
625 625 625 18 21 625 13 22 625 625 625 625 625 33 625 625 625 60 22 41 625 625 625 38 625 625 25 625 36 625 625 625 625 625 42 625 41 31 31 625 625 625 625 625 43 34 625 625 54 625 38 625 625 625 34 625 36 625 625 13 625 35 42 625 625 32 0 625 625 625 625 625 625 625 2 38 625 625 625 42 41 56 13 26 625 625 9 23 39
52 72 41 625 625 31 625 625 32 16 39 625 23 625 46 65 80 79 625 625 625 13 625 625 56 69 625 625 625 5 33 625 625 625 625 625 625 625 625 32 625 625 625 79 625 625 71 64 93 38 625 38 64 625 625 625 625 625 39 625 35 625 625 625 93 625 625 0 63 17 625 625 625 17 625 625 625 55 50 625 625 96 625 625 38 625 625 625 625
625 625 625 625 625 32 625 625 54 625 625 625 46 625 22 625 625 625 625 625 625 49 42 625 8 625 625 29 625 57 625 27 37 625 625 12 625 625 625 35 17 625 31 625 625 625 15 15 625 40 625 25 625 625 625 34 625 20 23 625 28 625 625 625 32 625 625 63 0 47 39 625 22 45 625 625 625 625 625 625 625 625 625 625 51 39 625 625 625
625 625 47 625 625 15 625 625 33 18 43 625 18 625 29 625 625 82 625 625 625 6 625 625 41 72 625 625 625 12 38 73 625 625 625 56 625 625 625 22 57 625 625 625 625 625 54 47 625 32 625 22 625 625 625 80 625 52 24 625 21 625 625 625 77 625 625 17 47 0 625 625 625 5 625 625 625 625 50 625 625 625 625 625 625 625 625 625 625
625 625 625 625 625 625 625 625 625 625 625 4 625 625 625 625 625 625 625 625 625 625 625 33 43 625 625 31 625 625 625 12 3 20 625 28 23 625 625 625 27 19 19 625 32 625 43 49 625 625 625 625 625 625 625 27 625 34 625 625 625 24 20 625 31 625 625 625 39 625 0 22 26 625 625 625 625 625 625 17 625 625 625 625 625 43 625 625 625
625 625 625 625 625 625 29 625 625 625 625 18 625 625 625 625 625 625 38 13 625 625 625 31 625 625 625 625 625 625 625 34 26 8 625 625 22 625 625 625 625 4 28 625 11 9 625 625 625 625 4 625 625 625 625 49 625 625 625 625 625 15 3 625 53 11 625 625 625 625 22 0 625 625 625 18 625 625 625 15 625 625 33 27 625 625 625 625 3
43 625 625 625 625 625 625 625 54 625 625 28 52 30 41 625 625 625 39 625 625 625 36 20 21 625 625 9 625 625 625 19 25 40 625 12 19 625 625 41 5 35 10 625 49 625 34 37 625 40 625 625 625 29 625 37 625 9 36 625 625 28 35 38 38 625 625 625 22 625 26 625 0 625 625 625 32 625 625 24 625 625 625 625 49 23 625 625 625
625 625 43 625 625 13 625 625 29 15 39 625 14 625 29 625 625 625 625 625 625 5 38 625 39 625 625 625 625 12 34 625 625 625 625 54 625 625 625 17 54 625 625 625 625 625 54 47 625 27 625 20 625 625 625 625 625 49 22 625 18 625 625 625 76 625 625 17 45 5 625 625 625 0 625 625 625 625 625 625 625 625 625 625 32 625 625 625 625
625 625 625 20 23 625 11 24 625 625 625 625 625 625 625 625 625 625 23 39 625 625 625 625 625 625 625 625 38 625 625 625 625 625 625 625 625 625 34 625 625 625 625 625 41 32 625 625 625 625 36 625 625 625 36 625 625 625 625 14 625 34 40 625 625 30 2 625 625 625 625 625 625 625 0 36 625 625 625 625 625 58 13 24 625 625 8 625 37
625 625 625 625 57 625 27 58 625 625 625 36 625 625 625 625 625 625 625 6 625 625 625 625 625 625 625 625 73 625 625 52 43 21 625 625 625 625 69 625 625 22 625 625 9 13 625 625 625 625 16 625 625 625 69 66 625 625 625 47 625 29 21 625 70 22 38 625 625 625 625 18 625 625 36 0 625 625 625 625 625 93 36 14 625 625 31 625 16
27 625 625 20 26 625 625 26 625 625 625 625 625 6 625 26 625 625 13 625 7 625 28 16 45 625 10 23 625 625 625 625 625 625 29 625 26 9 38 625 37 625 32 625 625 625 625 625 625 38 625 625 25 11 29 625 19 31 625 25 625 30 625 23 625 625 625 625 625 625 625 625 32 625 625 625 0 26 34 625 625 625 24 625 40 12 625 12 625
5 24 24 625 625 625 625 39 23 625 22 625 625 625 625 11 625 33 625 625 23 625 14 625 625 24 625 625 625 625 26 625 625 625 26 625 625 26 625 625 625 625 625 625 625 625 625 625 625 23 625 625 9 20 34 625 23 40 625 625 625 625 625 9 625 625 625 55 625 625 625 625 625 625 625 625 26 0 8 625 625 625 625 625 18 26 625 625 625
9 24 16 625 625 625 625 46 18 34 14 625 32 625 625 15 32 33 625 625 31 625 18 625 51 22 625 625 625 47 19 625 625 625 30 625 625 34 625 33 625 625 625 31 625 625 625 625 45 23 625 625 14 27 39 625 29 45 625 625 625 625 625 15 625 625 625 50 625 50 625 625 625 625 625 625 34 8 0 625 38 49 625 625 14 33 625 625 625
625 625 625 42 625 625 31 625 625 625 625 15 625 28 625 625 625 625 31 625 625 625 625 19 625 625 32 23 625 625 625 24 20 19 625 33 8 625 625 625 28 12 13 625 26 19 625 625 625 625 16 625 625 625 625 44 625 31 625 42 625 7 12 625 46 12 42 625 625 625 17 15 24 625 625 625 625 625 625 0 625 625 31 625 625 32 33 33 16
625 19 49 26 20 625 625 19 625 625 625 625 625 625 625 23 13 19 625 625 28 625 625 625 625 23 625 625 7 625 625 625 625 625 9 625 625 26 14 625 625 625 625 15 625 625 625 625 16 625 625 625 25 625 8 625 16 625 625 625 625 625 625 625 625 625 41 625 625 625 625 625 625 625 625 625 625 625 38 625 0 19 625 66 625 625 625 625 625
625 25 55 44 37 625 66 36 625 625 58 625 625 625 625 37 17 18 625 625 625 625 625 625 625 28 625 625 20 625 63 625 625 625 25 625 625 45 25 625 625 625 625 18 625 86 625 625 4 625 625 625 625 625 26 625 35 625 625 47 625 625 625 625 625 625 56 96 625 625 625 625 625 625 58 93 625 625 49 625 19 0 59 82 625 625 62 625 625
625 625 625 15 22 625 10 23 625 625 625 45 625 21 625 625 625 625 11 37 625 625 625 25 625 625 14 37 38 625 625 625 625 625 625 625 28 24 36 625 625 35 38 625 38 27 625 625 625 625 30 625 625 625 34 625 625 625 625 13 625 24 33 625 625 22 13 625 625 625 625 33 625 625 13 36 24 625 625 31 625 59 0 28 625 34 8 13 30
625 625 625 41 47 625 18 48 625 625 625 625 625 625 625 625 625 85 39 20 625 625 625 625 625 625 625 625 62 625 625 625 625 33 67 625 625 51 57 625 625 625 625 625 22 19 625 625 80 625 23 625 625 625 59 77 59 625 625 37 625 32 30 625 625 25 26 625 625 625 625 27 625 625 24 14 625 625 625 625 66 82 28 0 625 625 21 625 24
15 38 18 625 625 33 625 625 6 21 13 625 18 45 48 28 625 46 625 625 39 32 14 49 43 36 625 44 625 34 12 625 625 625 43 53 625 625 625 21 49 625 625 625 625 625 625 625 625 12 625 625 26 31 625 625 41 41 34 625 31 625 625 18 625 625 625 38 51 625 625 625 49 32 625 625 40 18 14 625 625 625 625 625 0 35 625 625 625
24 625 625 32 625 625 625 38 41 625 45 43 45 13 51 625 625 625 24 625 17 625 21 14 33 625 21 14 625 625 625 41 625 625 625 33 24 21 625 37 26 625 25 625 625 625 625 625 625 30 625 625 29 7 625 625 29 19 40 37 625 31 43 19 625 37 625 625 39 625 43 625 23 625 625 625 12 26 33 32 625 625 34 625 35 0 625 23 625
625 625 625 20 26 625 4 27 625 625 625 625 625 28 625 625 625 625 19 33 625 625 625 31 625 625 22 625 42 625 625 625 625 625 625 625 32 625 38 625 625 625 625 625 35 25 625 625 625 625 29 625 625 625 38 625 625 625 625 16 625 26 33 625 625 23 9 625 625 625 625 625 625 625 8 31 625 625 625 33 625 62 8 21 625 625 0 21 29
625 625 625 10 18 625 23 19 625 625 625 625 625 10 625 33 625 625 2 625 13 625 625 19 625 625 1 30 625 625 625 625 625 625 30 625 27 11 32 625 625 625 625 625 625 625 625 625 625 625 625 625 33 22 26 625 21 625 625 14 625 27 39 34 625 29 23 625 625 625 625 625 625 625 625 625 12 625 625 33 625 625 13 625 625 23 21 0 625
625 625 625 625 625 625 26 625 625 625 625 21 625 625 625 625 625 625 36 12 625 625 625 31 625 625 625 625 625 625 625 36 29 11 625 625 22 625 625 625 625 7 29 625 11 5 625 625 625 625 1 625 625 625 625 53 625 625 625 43 625 14 5 625 56 9 39 625 625 625 625 3 625 625 37 16 625 625 625 16 625 625 30 24 625 625 29 625 0
EOF
